10 10 4

0 244 296 404 171 189 299 236 92 450 
403 0 330 458 91 386 213 322 367 123 
83 148 0 435 385 474 354 166 132 59 
423 135 177 0 72 86 179 182 207 318 
188 149 116 137 0 51 153 301 300 489 
220 328 112 293 361 0 210 435 452 391 
288 117 473 53 490 315 0 387 269 351 
65 401 264 90 295 363 156 0 383 120 
466 390 126 455 110 404 273 109 0 264 
433 494 215 323 488 490 52 248 479 0 

197.75 0 8
197.75 1 0
197.75 2 8
197.75 3 4
197.75 4 2
197.75 5 1
197.75 6 3
197.75 7 5
197.75 8 6
197.75 9 5

